(declare-fun v7 () (_ BitVec 15))
(declare-fun v16 () (_ BitVec 15))
(declare-fun v21 () (_ BitVec 8))
(assert
(let (($e18 (_ bv0 7)))
(let (($e75 (concat $e18 v21)))
(let (($e76 (bvand $e75 v7)))
(let (($e582 (bvand v16   $e76)))
(let (($e1236 (   extract      $e75 )))
              (ite        $e1236  $e76 $e582)
                                                                                                                                                                                                                                                                                                                                                                                                                                                                                                                                                                                                                                                                                                                                                                                                                                                                                                                                                                                                                                                                                                                                                                                                                                                                                                                                                                                                                                                                                                                                                                                                                                                                                                                                                                                                                                                                                                                                                                                                                                                                                                                                                                                                                                                                                                                                                                                                                                                                                                                                                                                                                                                                                                                                                                                                                                                                                                                                                                                                                                                                                                                                                                                                                                                                                                                                      )                                                                                                                                                                                                                                                                                                                                                                                                                                                                                                                                                                                                                                                                             )                                                                                                                                                                                                                                                                                                                                                                                                                                                                                                                         ))                                )                 )
